/* Objective function */
min: 12x1 + 14x2 + 16x3 + 18x4 + 10y1 + 12y2 + 14y3 + 16y4 + 2s1 + 2s2 + 2s3 + 2s4;

/* Constraints */
x1 + r1 - s1 = 150;
s1 + x2 + r2 - s2 = 200;
s2 + x3 + r3 - s3 = 250;
s3 + x4 + r4 - s4 = 150;

x1 - 200b1 >= 0;
x2 - 200b2 >= 0;
x3 - 200b3 >= 0;
x4 - 200b4 >= 0;

y1 - 1000b1 <= 0;
y2 - 1000b2 <= 0;
y3 - 1000b3 <= 0;
y4 - 1000b4 <= 0;

0 <= q1 <= 200;
0 <= q2 <= 200;
0 <= q3 <= 200;
0 <= q4 <= 200;

